\ENCODING=ISO-8859-1
\Problem name: kMIS

Maximize
 obj: x1 + x2 + x3 + x4 + x5 + x6 + x7 + x8 + x9 + x10 + x11 + x12 + x13 + x14
      + x15
Subject To
 c1:   x16 + x17 + x18 + x19 + x20 + x21 + x22 + x23 + x24 + x25 + x26 + x27
       + x28 + x29 + x30  = 4
 c2:   x2 + x16 <= 1
 c3:   x3 + x16 <= 1
 c4:   x4 + x16 <= 1
 c5:   x7 + x16 <= 1
 c6:   x12 + x16 <= 1
 c7:   x13 + x16 <= 1
 c8:   x1 + x17 <= 1
 c9:   x5 + x17 <= 1
 c10:  x7 + x17 <= 1
 c11:  x9 + x17 <= 1
 c12:  x10 + x17 <= 1
 c13:  x12 + x17 <= 1
 c14:  x13 + x17 <= 1
 c15:  x14 + x17 <= 1
 c16:  x15 + x17 <= 1
 c17:  x1 + x18 <= 1
 c18:  x2 + x18 <= 1
 c19:  x3 + x18 <= 1
 c20:  x4 + x18 <= 1
 c21:  x5 + x18 <= 1
 c22:  x6 + x18 <= 1
 c23:  x7 + x18 <= 1
 c24:  x8 + x18 <= 1
 c25:  x9 + x18 <= 1
 c26:  x12 + x18 <= 1
 c27:  x13 + x18 <= 1
 c28:  x14 + x18 <= 1
 c29:  x15 + x18 <= 1
 c30:  x1 + x19 <= 1
 c31:  x2 + x19 <= 1
 c32:  x3 + x19 <= 1
 c33:  x7 + x19 <= 1
 c34:  x8 + x19 <= 1
 c35:  x10 + x19 <= 1
 c36:  x11 + x19 <= 1
 c37:  x13 + x19 <= 1
 c38:  x1 + x20 <= 1
 c39:  x2 + x20 <= 1
 c40:  x5 + x20 <= 1
 c41:  x8 + x20 <= 1
 c42:  x9 + x20 <= 1
 c43:  x12 + x20 <= 1
 c44:  x13 + x20 <= 1
 c45:  x1 + x21 <= 1
 c46:  x2 + x21 <= 1
 c47:  x3 + x21 <= 1
 c48:  x4 + x21 <= 1
 c49:  x5 + x21 <= 1
 c50:  x6 + x21 <= 1
 c51:  x7 + x21 <= 1
 c52:  x12 + x21 <= 1
 c53:  x14 + x21 <= 1
 c54:  x2 + x22 <= 1
 c55:  x4 + x22 <= 1
 c56:  x5 + x22 <= 1
 c57:  x13 + x22 <= 1
 c58:  x14 + x22 <= 1
 c59:  x15 + x22 <= 1
 c60:  x2 + x23 <= 1
 c61:  x5 + x23 <= 1
 c62:  x6 + x23 <= 1
 c63:  x7 + x23 <= 1
 c64:  x8 + x23 <= 1
 c65:  x10 + x23 <= 1
 c66:  x11 + x23 <= 1
 c67:  x12 + x23 <= 1
 c68:  x1 + x24 <= 1
 c69:  x5 + x24 <= 1
 c70:  x7 + x24 <= 1
 c71:  x10 + x24 <= 1
 c72:  x11 + x24 <= 1
 c73:  x12 + x24 <= 1
 c74:  x13 + x24 <= 1
 c75:  x2 + x25 <= 1
 c76:  x3 + x25 <= 1
 c77:  x5 + x25 <= 1
 c78:  x6 + x25 <= 1
 c79:  x8 + x25 <= 1
 c80:  x11 + x25 <= 1
 c81:  x13 + x25 <= 1
 c82:  x14 + x25 <= 1
 c83:  x15 + x25 <= 1
 c84:  x6 + x26 <= 1
 c85:  x8 + x26 <= 1
 c86:  x12 + x26 <= 1
 c87:  x14 + x26 <= 1
 c88:  x1 + x27 <= 1
 c89:  x2 + x27 <= 1
 c90:  x5 + x27 <= 1
 c91:  x6 + x27 <= 1
 c92:  x7 + x27 <= 1
 c93:  x9 + x27 <= 1
 c94:  x13 + x27 <= 1
 c95:  x1 + x28 <= 1
 c96:  x4 + x28 <= 1
 c97:  x6 + x28 <= 1
 c98:  x10 + x28 <= 1
 c99:  x11 + x28 <= 1
 c100: x12 + x28 <= 1
 c101: x1 + x29 <= 1
 c102: x2 + x29 <= 1
 c103: x4 + x29 <= 1
 c104: x5 + x29 <= 1
 c105: x7 + x29 <= 1
 c106: x11 + x29 <= 1
 c107: x12 + x29 <= 1
 c108: x13 + x29 <= 1
 c109: x14 + x29 <= 1
 c110: x3 + x30 <= 1
 c111: x5 + x30 <= 1
 c112: x10 + x30 <= 1
 c113: x11 + x30 <= 1
 c114: x12 + x30 <= 1
 c115: x13 + x30 <= 1
 c116: x14 + x30 <= 1
Bounds
 0 <= x1 <= 1
 0 <= x2 <= 1
 0 <= x3 <= 1
 0 <= x4 <= 1
 0 <= x5 <= 1
 0 <= x6 <= 1
 0 <= x7 <= 1
 0 <= x8 <= 1
 0 <= x9 <= 1
 0 <= x10 <= 1
 0 <= x11 <= 1
 0 <= x12 <= 1
 0 <= x13 <= 1
 0 <= x14 <= 1
 0 <= x15 <= 1
 0 <= x16 <= 1
 0 <= x17 <= 1
 0 <= x18 <= 1
 0 <= x19 <= 1
 0 <= x20 <= 1
 0 <= x21 <= 1
 0 <= x22 <= 1
 0 <= x23 <= 1
 0 <= x24 <= 1
 0 <= x25 <= 1
 0 <= x26 <= 1
 0 <= x27 <= 1
 0 <= x28 <= 1
 0 <= x29 <= 1
 0 <= x30 <= 1
Binaries
 x1  x2  x3  x4  x5  x6  x7  x8  x9  x10  x11  x12  x13  x14  x15  x16  x17 
 x18  x19  x20  x21  x22  x23  x24  x25  x26  x27  x28  x29  x30 
End
